db/data/187022201614654134604041297272117813802.z3.out
-------------------
2500.238958205
